Verilog_FormalVerification_Beginner/workspace/12LEDWalker/src/ledwalker/model/design_smt2.smt2
; SMT-LIBv2 description generated by Yosys 0.35+36 (git sha1 c95298225, clang 10.0.0-4ubuntu1 -fPIC -Os)
; yosys-smt2-module ledwalker
(declare-sort |ledwalker_s| 0)
(declare-fun |ledwalker_is| (|ledwalker_s|) Bool)
; yosys-smt2-witness {"offset": 0, "path": ["\\wait_counter"], "smtname": 0, "smtoffset": 0, "type": "reg", "width": 32}
(declare-fun |ledwalker#0| (|ledwalker_s|) (_ BitVec 32)) ; \wait_counter
; yosys-smt2-register wait_counter 32
; yosys-smt2-wire wait_counter 32
(define-fun |ledwalker_n wait_counter| ((state |ledwalker_s|)) (_ BitVec 32) (|ledwalker#0| state))
; yosys-smt2-witness {"offset": 0, "path": ["\\stb"], "smtname": 1, "smtoffset": 0, "type": "reg", "width": 1}
(declare-fun |ledwalker#1| (|ledwalker_s|) (_ BitVec 1)) ; \stb
; yosys-smt2-register stb 1
; yosys-smt2-wire stb 1
(define-fun |ledwalker_n stb| ((state |ledwalker_s|)) Bool (= ((_ extract 0 0) (|ledwalker#1| state)) #b1))
; yosys-smt2-witness {"offset": 0, "path": ["\\o_led"], "smtname": 2, "smtoffset": 0, "type": "reg", "width": 8}
(declare-fun |ledwalker#2| (|ledwalker_s|) (_ BitVec 8)) ; \o_led
; yosys-smt2-output o_led 8
; yosys-smt2-register o_led 8
; yosys-smt2-wire o_led 8
(define-fun |ledwalker_n o_led| ((state |ledwalker_s|)) (_ BitVec 8) (|ledwalker#2| state))
; yosys-smt2-witness {"offset": 0, "path": ["\\led_index"], "smtname": 3, "smtoffset": 0, "type": "reg", "width": 4}
(declare-fun |ledwalker#3| (|ledwalker_s|) (_ BitVec 4)) ; \led_index
; yosys-smt2-register led_index 4
; yosys-smt2-wire led_index 4
(define-fun |ledwalker_n led_index| ((state |ledwalker_s|)) (_ BitVec 4) (|ledwalker#3| state))
(declare-fun |ledwalker#4| (|ledwalker_s|) Bool) ; \i_clk
; yosys-smt2-input i_clk 1
; yosys-smt2-wire i_clk 1
; yosys-smt2-clock i_clk posedge
; yosys-smt2-witness {"offset": 0, "path": ["\\i_clk"], "smtname": "i_clk", "smtoffset": 0, "type": "posedge", "width": 1}
; yosys-smt2-witness {"offset": 0, "path": ["\\i_clk"], "smtname": "i_clk", "smtoffset": 0, "type": "input", "width": 1}
(define-fun |ledwalker_n i_clk| ((state |ledwalker_s|)) Bool (|ledwalker#4| state))
(define-fun |ledwalker#5| ((state |ledwalker_s|)) Bool (= (|ledwalker#2| state) #b10000000)) ; $procmux$54_CMP
(define-fun |ledwalker#6| ((state |ledwalker_s|)) Bool (= (|ledwalker#2| state) #b01000000)) ; $procmux$55_CMP
(define-fun |ledwalker#7| ((state |ledwalker_s|)) Bool (= (|ledwalker#2| state) #b00100000)) ; $procmux$56_CMP
(define-fun |ledwalker#8| ((state |ledwalker_s|)) Bool (= (|ledwalker#2| state) #b00010000)) ; $procmux$57_CMP
(define-fun |ledwalker#9| ((state |ledwalker_s|)) Bool (= (|ledwalker#2| state) #b00001000)) ; $procmux$58_CMP
(define-fun |ledwalker#10| ((state |ledwalker_s|)) Bool (= (|ledwalker#2| state) #b00000100)) ; $procmux$59_CMP
(define-fun |ledwalker#11| ((state |ledwalker_s|)) Bool (= (|ledwalker#2| state) #b00000010)) ; $procmux$60_CMP
(define-fun |ledwalker#12| ((state |ledwalker_s|)) Bool (= (|ledwalker#2| state) #b00000001)) ; $procmux$61_CMP
(define-fun |ledwalker#13| ((state |ledwalker_s|)) Bool (or  (|ledwalker#5| state) (|ledwalker#6| state) (|ledwalker#7| state) (|ledwalker#8| state) (|ledwalker#9| state) (|ledwalker#10| state) (|ledwalker#11| state) (|ledwalker#12| state))) ; $auto$opt_reduce.cc:134:opt_pmux$83
(define-fun |ledwalker#14| ((state |ledwalker_s|)) (_ BitVec 1) (ite (|ledwalker#13| state) #b1 #b0)) ; \f_valid_output
; yosys-smt2-wire f_valid_output 1
(define-fun |ledwalker_n f_valid_output| ((state |ledwalker_s|)) Bool (= ((_ extract 0 0) (|ledwalker#14| state)) #b1))
; yosys-smt2-anyinit ledwalker#15 1 ledwalker.v:103.5-104.49
; yosys-smt2-witness {"offset": 0, "path": ["\\_witness_", "\\anyinit_procdff_76"], "smtname": 15, "smtoffset": 0, "type": "init", "width": 1}
(declare-fun |ledwalker#15| (|ledwalker_s|) (_ BitVec 1)) ; \_witness_.anyinit_procdff_76
; yosys-smt2-register _witness_.anyinit_procdff_76 1
; yosys-smt2-wire _witness_.anyinit_procdff_76 1
(define-fun |ledwalker_n _witness_.anyinit_procdff_76| ((state |ledwalker_s|)) Bool (= ((_ extract 0 0) (|ledwalker#15| state)) #b1))
; yosys-smt2-anyinit ledwalker#16 1 ledwalker.v:106.5-107.46
; yosys-smt2-witness {"offset": 0, "path": ["\\_witness_", "\\anyinit_procdff_74"], "smtname": 16, "smtoffset": 0, "type": "init", "width": 1}
(declare-fun |ledwalker#16| (|ledwalker_s|) (_ BitVec 1)) ; \_witness_.anyinit_procdff_74
; yosys-smt2-register _witness_.anyinit_procdff_74 1
; yosys-smt2-wire _witness_.anyinit_procdff_74 1
(define-fun |ledwalker_n _witness_.anyinit_procdff_74| ((state |ledwalker_s|)) Bool (= ((_ extract 0 0) (|ledwalker#16| state)) #b1))
; yosys-smt2-witness {"offset": 0, "path": ["$formal$ledwalker.v:106$4_EN"], "smtname": 17, "smtoffset": 0, "type": "reg", "width": 1}
(declare-fun |ledwalker#17| (|ledwalker_s|) (_ BitVec 1)) ; $formal$ledwalker.v:106$4_EN
; yosys-smt2-register $formal$ledwalker.v:106$4_EN 1
(define-fun |ledwalker_n $formal$ledwalker.v:106$4_EN| ((state |ledwalker_s|)) Bool (= ((_ extract 0 0) (|ledwalker#17| state)) #b1))
(define-fun |ledwalker#18| ((state |ledwalker_s|)) (_ BitVec 1) (bvnot (ite (|ledwalker#4| state) #b1 #b0))) ; $auto$rtlil.cc:2461:Not$87
; yosys-smt2-assume 0 $auto$formalff.cc:758:execute$88
(define-fun |ledwalker_u 0| ((state |ledwalker_s|)) Bool (or (= ((_ extract 0 0) (|ledwalker#18| state)) #b1) (not true))) ; $auto$formalff.cc:758:execute$88
(define-fun |ledwalker#19| ((state |ledwalker_s|)) Bool (bvule (|ledwalker#3| state) #b1101)) ; $0$formal$ledwalker.v:97$1_CHECK[0:0]$16
; yosys-smt2-assert 0 $assert$ledwalker.v:97$35 ledwalker.v:97.13-98.29
(define-fun |ledwalker_a 0| ((state |ledwalker_s|)) Bool (or (|ledwalker#19| state) (not true))) ; $assert$ledwalker.v:97$35
; yosys-smt2-assert 1 $assert$ledwalker.v:130$39 ledwalker.v:130.10-132.25
(define-fun |ledwalker_a 1| ((state |ledwalker_s|)) Bool (or (= ((_ extract 0 0) (|ledwalker#14| state)) #b1) (not true))) ; $assert$ledwalker.v:130$39
; yosys-smt2-assert 2 $assert$ledwalker.v:106$38 ledwalker.v:106.28-107.45
(define-fun |ledwalker_a 2| ((state |ledwalker_s|)) Bool (or (= ((_ extract 0 0) (|ledwalker#16| state)) #b1) (not (= ((_ extract 0 0) (|ledwalker#17| state)) #b1)))) ; $assert$ledwalker.v:106$38
; yosys-smt2-assert 3 $assert$ledwalker.v:103$37 ledwalker.v:103.28-104.48
(define-fun |ledwalker_a 3| ((state |ledwalker_s|)) Bool (or (= ((_ extract 0 0) (|ledwalker#15| state)) #b1) (not (= ((_ extract 0 0) (|ledwalker#17| state)) #b1)))) ; $assert$ledwalker.v:103$37
(define-fun |ledwalker#20| ((state |ledwalker_s|)) Bool (not (or  (= ((_ extract 0 0) (|ledwalker#0| state)) #b1) (= ((_ extract 1 1) (|ledwalker#0| state)) #b1) (= ((_ extract 2 2) (|ledwalker#0| state)) #b1) (= ((_ extract 3 3) (|ledwalker#0| state)) #b1) (= ((_ extract 4 4) (|ledwalker#0| state)) #b1) (= ((_ extract 5 5) (|ledwalker#0| state)) #b1) (= ((_ extract 6 6) (|ledwalker#0| state)) #b1) (= ((_ extract 7 7) (|ledwalker#0| state)) #b1) (= ((_ extract 8 8) (|ledwalker#0| state)) #b1) (= ((_ extract 9 9) (|ledwalker#0| state)) #b1) (= ((_ extract 10 10) (|ledwalker#0| state)) #b1) (= ((_ extract 11 11) (|ledwalker#0| state)) #b1) (= ((_ extract 12 12) (|ledwalker#0| state)) #b1) (= ((_ extract 13 13) (|ledwalker#0| state)) #b1) (= ((_ extract 14 14) (|ledwalker#0| state)) #b1) (= ((_ extract 15 15) (|ledwalker#0| state)) #b1) (= ((_ extract 16 16) (|ledwalker#0| state)) #b1) (= ((_ extract 17 17) (|ledwalker#0| state)) #b1) (= ((_ extract 18 18) (|ledwalker#0| state)) #b1) (= ((_ extract 19 19) (|ledwalker#0| state)) #b1) (= ((_ extract 20 20) (|ledwalker#0| state)) #b1) (= ((_ extract 21 21) (|ledwalker#0| state)) #b1) (= ((_ extract 22 22) (|ledwalker#0| state)) #b1) (= ((_ extract 23 23) (|ledwalker#0| state)) #b1) (= ((_ extract 24 24) (|ledwalker#0| state)) #b1) (= ((_ extract 25 25) (|ledwalker#0| state)) #b1) (= ((_ extract 26 26) (|ledwalker#0| state)) #b1) (= ((_ extract 27 27) (|ledwalker#0| state)) #b1) (= ((_ extract 28 28) (|ledwalker#0| state)) #b1) (= ((_ extract 29 29) (|ledwalker#0| state)) #b1) (= ((_ extract 30 30) (|ledwalker#0| state)) #b1) (= ((_ extract 31 31) (|ledwalker#0| state)) #b1)))) ; $eq$ledwalker.v:107$30_Y
(define-fun |ledwalker#21| ((state |ledwalker_s|)) Bool (= (|ledwalker#1| state) (ite (|ledwalker#20| state) #b1 #b0))) ; $0$formal$ledwalker.v:106$4_CHECK[0:0]$28
(define-fun |ledwalker#22| ((state |ledwalker_s|)) Bool (bvule (|ledwalker#0| state) #b00000000000000000000001111100111)) ; $0$formal$ledwalker.v:103$3_CHECK[0:0]$24
(define-fun |ledwalker#23| ((state |ledwalker_s|)) (_ BitVec 4) (bvadd (|ledwalker#3| state) #b0001)) ; $add$ledwalker.v:66$13_Y
(define-fun |ledwalker#24| ((state |ledwalker_s|)) Bool (bvugt (|ledwalker#3| state) #b1100)) ; $gt$ledwalker.v:63$12_Y
(define-fun |ledwalker#25| ((state |ledwalker_s|)) (_ BitVec 4) (ite (|ledwalker#24| state) #b0000 (|ledwalker#23| state))) ; $procmux$64_Y
(define-fun |ledwalker#26| ((state |ledwalker_s|)) (_ BitVec 4) (ite (= ((_ extract 0 0) (|ledwalker#1| state)) #b1) (|ledwalker#25| state) (|ledwalker#3| state))) ; $0\led_index[3:0]
; yosys-smt2-memory $auto$proc_rom.cc:150:do_switch$49 4 8 1 0 sync
; yosys-smt2-witness {"path": ["$auto$proc_rom.cc:150:do_switch$49"], "rom": true, "size": 16, "smtname": "$auto$proc_rom.cc:150:do_switch$49", "statebv": false, "type": "mem", "uninitialized": [], "width": 8}
(declare-fun |ledwalker#27#0| (|ledwalker_s|) (Array (_ BitVec 4) (_ BitVec 8))) ; $auto$proc_rom.cc:150:do_switch$49
(define-fun |ledwalker_m $auto$proc_rom.cc:150:do_switch$49| ((state |ledwalker_s|)) (Array (_ BitVec 4) (_ BitVec 8)) (|ledwalker#27#0| state))
(define-fun |ledwalker_m:R0A $auto$proc_rom.cc:150:do_switch$49| ((state |ledwalker_s|)) (_ BitVec 4) (|ledwalker#3| state)) ; \led_index
(define-fun |ledwalker#28| ((state |ledwalker_s|)) (_ BitVec 8) (select (|ledwalker#27#0| state) (|ledwalker_m:R0A $auto$proc_rom.cc:150:do_switch$49| state))) ; $0\o_led[7:0]
(define-fun |ledwalker_m:R0D $auto$proc_rom.cc:150:do_switch$49| ((state |ledwalker_s|)) (_ BitVec 8) (|ledwalker#28| state))
(define-fun |ledwalker#29| ((state |ledwalker_s|)) (_ BitVec 1) (ite (|ledwalker#20| state) #b1 #b0)) ; $0\stb[0:0]
(define-fun |ledwalker#30| ((state |ledwalker_s|)) (_ BitVec 32) (bvsub (|ledwalker#0| state) #b00000000000000000000000000000001)) ; $sub$ledwalker.v:58$10_Y
(define-fun |ledwalker#31| ((state |ledwalker_s|)) (_ BitVec 32) (ite (|ledwalker#20| state) #b00000000000000000000001111100111 (|ledwalker#30| state))) ; $0\wait_counter[31:0]
(define-fun |ledwalker_a| ((state |ledwalker_s|)) Bool (and
  (|ledwalker_a 0| state)
  (|ledwalker_a 1| state)
  (|ledwalker_a 2| state)
  (|ledwalker_a 3| state)
))
(define-fun |ledwalker_u| ((state |ledwalker_s|)) Bool 
  (|ledwalker_u 0| state)
)
(define-fun |ledwalker_i| ((state |ledwalker_s|)) Bool (and
  (= (|ledwalker#0| state) #b00000000000000000000001111100111) ; wait_counter
  (= (= ((_ extract 0 0) (|ledwalker#1| state)) #b1) false) ; stb
  (= (|ledwalker#2| state) #b00000001) ; o_led
  (= (|ledwalker#3| state) #b0000) ; led_index
  (= (= ((_ extract 0 0) (|ledwalker#17| state)) #b1) false) ; $formal$ledwalker.v:106$4_EN
  (= (bvand (select (|ledwalker#27#0| state) #b0000) #b11111111) #b00000001) ; $auto$proc_rom.cc:150:do_switch$49[0]
  (= (bvand (select (|ledwalker#27#0| state) #b0001) #b11111111) #b00000010) ; $auto$proc_rom.cc:150:do_switch$49[1]
  (= (bvand (select (|ledwalker#27#0| state) #b0010) #b11111111) #b00000100) ; $auto$proc_rom.cc:150:do_switch$49[2]
  (= (bvand (select (|ledwalker#27#0| state) #b0011) #b11111111) #b00001000) ; $auto$proc_rom.cc:150:do_switch$49[3]
  (= (bvand (select (|ledwalker#27#0| state) #b0100) #b11111111) #b00010000) ; $auto$proc_rom.cc:150:do_switch$49[4]
  (= (bvand (select (|ledwalker#27#0| state) #b0101) #b11111111) #b00100000) ; $auto$proc_rom.cc:150:do_switch$49[5]
  (= (bvand (select (|ledwalker#27#0| state) #b0110) #b11111111) #b01000000) ; $auto$proc_rom.cc:150:do_switch$49[6]
  (= (bvand (select (|ledwalker#27#0| state) #b0111) #b11111111) #b10000000) ; $auto$proc_rom.cc:150:do_switch$49[7]
  (= (bvand (select (|ledwalker#27#0| state) #b1000) #b11111111) #b01000000) ; $auto$proc_rom.cc:150:do_switch$49[8]
  (= (bvand (select (|ledwalker#27#0| state) #b1001) #b11111111) #b00100000) ; $auto$proc_rom.cc:150:do_switch$49[9]
  (= (bvand (select (|ledwalker#27#0| state) #b1010) #b11111111) #b00010000) ; $auto$proc_rom.cc:150:do_switch$49[10]
  (= (bvand (select (|ledwalker#27#0| state) #b1011) #b11111111) #b00001000) ; $auto$proc_rom.cc:150:do_switch$49[11]
  (= (bvand (select (|ledwalker#27#0| state) #b1100) #b11111111) #b00000100) ; $auto$proc_rom.cc:150:do_switch$49[12]
  (= (bvand (select (|ledwalker#27#0| state) #b1101) #b11111111) #b00000010) ; $auto$proc_rom.cc:150:do_switch$49[13]
  (= (bvand (select (|ledwalker#27#0| state) #b1110) #b11111111) #b00000001) ; $auto$proc_rom.cc:150:do_switch$49[14]
  (= (bvand (select (|ledwalker#27#0| state) #b1111) #b11111111) #b00000001) ; $auto$proc_rom.cc:150:do_switch$49[15]
))
(define-fun |ledwalker_h| ((state |ledwalker_s|)) Bool true)
(define-fun |ledwalker_t| ((state |ledwalker_s|) (next_state |ledwalker_s|)) Bool (and
  (= #b1 (|ledwalker#17| next_state)) ; $procdff$75 $formal$ledwalker.v:106$4_EN
  (= (ite (|ledwalker#21| state) #b1 #b0) (|ledwalker#16| next_state)) ; $procdff$74 \_witness_.anyinit_procdff_74
  (= (ite (|ledwalker#22| state) #b1 #b0) (|ledwalker#15| next_state)) ; $procdff$76 \_witness_.anyinit_procdff_76
  (= (|ledwalker#26| state) (|ledwalker#3| next_state)) ; $procdff$79 \led_index
  (= (|ledwalker#28| state) (|ledwalker#2| next_state)) ; $procdff$78 \o_led
  (= (|ledwalker#29| state) (|ledwalker#1| next_state)) ; $procdff$81 \stb
  (= (|ledwalker#31| state) (|ledwalker#0| next_state)) ; $procdff$80 \wait_counter
  (= (|ledwalker#27#0| state) (|ledwalker#27#0| next_state)) ; $auto$proc_rom.cc:150:do_switch$49
)) ; end of module ledwalker
; yosys-smt2-topmod ledwalker
; end of yosys output
